nNurses = 117;
nHours = 29;
minHours = 4;
maxHours = 11;
maxConsec = 6;
maxPresence = 26;
demand = [7, 7, 9, 13, 17, 14, 15, 20, 16, 21, 19, 15, 15, 18, 20, 22, 26, 21, 23, 18, 21, 17, 19, 17, 19, 22, 24, 23, 24];
